c description: Graph pigeonhole principle formula on fast_gnp_random_graph(10,25,0.9)
c generator: CNFgen (0.9.0)
c copyright: (C) 2012-2020 Massimo Lauria <massimo.lauria@uniroma1.it>
c url: https://massimolauria.net/cnfgen
c
p cnf 228 942
1 2 3 4 5 6 7 8 9 10 11 12 13 14 15 16 17 18 19 20 21 22 23 24 0
25 26 27 28 29 30 31 32 33 34 35 36 37 38 39 40 41 42 43 44 45 46 0
47 48 49 50 51 52 53 54 55 56 57 58 59 60 61 62 63 64 65 66 67 68 69 0
70 71 72 73 74 75 76 77 78 79 80 81 82 83 84 85 86 87 88 89 90 91 0
92 93 94 95 96 97 98 99 100 101 102 103 104 105 106 107 108 109 110 111 112 0
113 114 115 116 117 118 119 120 121 122 123 124 125 126 127 128 129 130 131 132 133 134 135 0
136 137 138 139 140 141 142 143 144 145 146 147 148 149 150 151 152 153 154 155 156 157 0
158 159 160 161 162 163 164 165 166 167 168 169 170 171 172 173 174 175 176 177 178 179 180 181 182 0
183 184 185 186 187 188 189 190 191 192 193 194 195 196 197 198 199 200 201 202 203 204 205 206 0
207 208 209 210 211 212 213 214 215 216 217 218 219 220 221 222 223 224 225 226 227 228 0
-1 -25 0
-1 -47 0
-1 -70 0
-1 -113 0
-1 -136 0
-1 -158 0
-1 -183 0
-1 -207 0
-25 -47 0
-25 -70 0
-25 -113 0
-25 -136 0
-25 -158 0
-25 -183 0
-25 -207 0
-47 -70 0
-47 -113 0
-47 -136 0
-47 -158 0
-47 -183 0
-47 -207 0
-70 -113 0
-70 -136 0
-70 -158 0
-70 -183 0
-70 -207 0
-113 -136 0
-113 -158 0
-113 -183 0
-113 -207 0
-136 -158 0
-136 -183 0
-136 -207 0
-158 -183 0
-158 -207 0
-183 -207 0
-2 -26 0
-2 -48 0
-2 -71 0
-2 -92 0
-2 -114 0
-2 -137 0
-2 -159 0
-2 -184 0
-2 -208 0
-26 -48 0
-26 -71 0
-26 -92 0
-26 -114 0
-26 -137 0
-26 -159 0
-26 -184 0
-26 -208 0
-48 -71 0
-48 -92 0
-48 -114 0
-48 -137 0
-48 -159 0
-48 -184 0
-48 -208 0
-71 -92 0
-71 -114 0
-71 -137 0
-71 -159 0
-71 -184 0
-71 -208 0
-92 -114 0
-92 -137 0
-92 -159 0
-92 -184 0
-92 -208 0
-114 -137 0
-114 -159 0
-114 -184 0
-114 -208 0
-137 -159 0
-137 -184 0
-137 -208 0
-159 -184 0
-159 -208 0
-184 -208 0
-3 -27 0
-3 -49 0
-3 -72 0
-3 -93 0
-3 -115 0
-3 -138 0
-3 -160 0
-3 -185 0
-27 -49 0
-27 -72 0
-27 -93 0
-27 -115 0
-27 -138 0
-27 -160 0
-27 -185 0
-49 -72 0
-49 -93 0
-49 -115 0
-49 -138 0
-49 -160 0
-49 -185 0
-72 -93 0
-72 -115 0
-72 -138 0
-72 -160 0
-72 -185 0
-93 -115 0
-93 -138 0
-93 -160 0
-93 -185 0
-115 -138 0
-115 -160 0
-115 -185 0
-138 -160 0
-138 -185 0
-160 -185 0
-4 -50 0
-4 -73 0
-4 -116 0
-4 -139 0
-4 -161 0
-4 -186 0
-4 -209 0
-50 -73 0
-50 -116 0
-50 -139 0
-50 -161 0
-50 -186 0
-50 -209 0
-73 -116 0
-73 -139 0
-73 -161 0
-73 -186 0
-73 -209 0
-116 -139 0
-116 -161 0
-116 -186 0
-116 -209 0
-139 -161 0
-139 -186 0
-139 -209 0
-161 -186 0
-161 -209 0
-186 -209 0
-5 -28 0
-5 -51 0
-5 -74 0
-5 -94 0
-5 -117 0
-5 -140 0
-5 -162 0
-5 -187 0
-5 -210 0
-28 -51 0
-28 -74 0
-28 -94 0
-28 -117 0
-28 -140 0
-28 -162 0
-28 -187 0
-28 -210 0
-51 -74 0
-51 -94 0
-51 -117 0
-51 -140 0
-51 -162 0
-51 -187 0
-51 -210 0
-74 -94 0
-74 -117 0
-74 -140 0
-74 -162 0
-74 -187 0
-74 -210 0
-94 -117 0
-94 -140 0
-94 -162 0
-94 -187 0
-94 -210 0
-117 -140 0
-117 -162 0
-117 -187 0
-117 -210 0
-140 -162 0
-140 -187 0
-140 -210 0
-162 -187 0
-162 -210 0
-187 -210 0
-6 -29 0
-6 -52 0
-6 -75 0
-6 -95 0
-6 -118 0
-6 -141 0
-6 -163 0
-6 -188 0
-6 -211 0
-29 -52 0
-29 -75 0
-29 -95 0
-29 -118 0
-29 -141 0
-29 -163 0
-29 -188 0
-29 -211 0
-52 -75 0
-52 -95 0
-52 -118 0
-52 -141 0
-52 -163 0
-52 -188 0
-52 -211 0
-75 -95 0
-75 -118 0
-75 -141 0
-75 -163 0
-75 -188 0
-75 -211 0
-95 -118 0
-95 -141 0
-95 -163 0
-95 -188 0
-95 -211 0
-118 -141 0
-118 -163 0
-118 -188 0
-118 -211 0
-141 -163 0
-141 -188 0
-141 -211 0
-163 -188 0
-163 -211 0
-188 -211 0
-7 -30 0
-7 -53 0
-7 -76 0
-7 -96 0
-7 -119 0
-7 -164 0
-7 -189 0
-7 -212 0
-30 -53 0
-30 -76 0
-30 -96 0
-30 -119 0
-30 -164 0
-30 -189 0
-30 -212 0
-53 -76 0
-53 -96 0
-53 -119 0
-53 -164 0
-53 -189 0
-53 -212 0
-76 -96 0
-76 -119 0
-76 -164 0
-76 -189 0
-76 -212 0
-96 -119 0
-96 -164 0
-96 -189 0
-96 -212 0
-119 -164 0
-119 -189 0
-119 -212 0
-164 -189 0
-164 -212 0
-189 -212 0
-8 -31 0
-8 -54 0
-8 -77 0
-8 -97 0
-8 -120 0
-8 -142 0
-8 -165 0
-8 -190 0
-8 -213 0
-31 -54 0
-31 -77 0
-31 -97 0
-31 -120 0
-31 -142 0
-31 -165 0
-31 -190 0
-31 -213 0
-54 -77 0
-54 -97 0
-54 -120 0
-54 -142 0
-54 -165 0
-54 -190 0
-54 -213 0
-77 -97 0
-77 -120 0
-77 -142 0
-77 -165 0
-77 -190 0
-77 -213 0
-97 -120 0
-97 -142 0
-97 -165 0
-97 -190 0
-97 -213 0
-120 -142 0
-120 -165 0
-120 -190 0
-120 -213 0
-142 -165 0
-142 -190 0
-142 -213 0
-165 -190 0
-165 -213 0
-190 -213 0
-9 -32 0
-9 -55 0
-9 -98 0
-9 -121 0
-9 -143 0
-9 -166 0
-9 -191 0
-9 -214 0
-32 -55 0
-32 -98 0
-32 -121 0
-32 -143 0
-32 -166 0
-32 -191 0
-32 -214 0
-55 -98 0
-55 -121 0
-55 -143 0
-55 -166 0
-55 -191 0
-55 -214 0
-98 -121 0
-98 -143 0
-98 -166 0
-98 -191 0
-98 -214 0
-121 -143 0
-121 -166 0
-121 -191 0
-121 -214 0
-143 -166 0
-143 -191 0
-143 -214 0
-166 -191 0
-166 -214 0
-191 -214 0
-10 -33 0
-10 -56 0
-10 -78 0
-10 -122 0
-10 -144 0
-10 -167 0
-10 -192 0
-10 -215 0
-33 -56 0
-33 -78 0
-33 -122 0
-33 -144 0
-33 -167 0
-33 -192 0
-33 -215 0
-56 -78 0
-56 -122 0
-56 -144 0
-56 -167 0
-56 -192 0
-56 -215 0
-78 -122 0
-78 -144 0
-78 -167 0
-78 -192 0
-78 -215 0
-122 -144 0
-122 -167 0
-122 -192 0
-122 -215 0
-144 -167 0
-144 -192 0
-144 -215 0
-167 -192 0
-167 -215 0
-192 -215 0
-11 -57 0
-11 -79 0
-11 -99 0
-11 -123 0
-11 -145 0
-11 -168 0
-11 -193 0
-11 -216 0
-57 -79 0
-57 -99 0
-57 -123 0
-57 -145 0
-57 -168 0
-57 -193 0
-57 -216 0
-79 -99 0
-79 -123 0
-79 -145 0
-79 -168 0
-79 -193 0
-79 -216 0
-99 -123 0
-99 -145 0
-99 -168 0
-99 -193 0
-99 -216 0
-123 -145 0
-123 -168 0
-123 -193 0
-123 -216 0
-145 -168 0
-145 -193 0
-145 -216 0
-168 -193 0
-168 -216 0
-193 -216 0
-12 -34 0
-12 -58 0
-12 -80 0
-12 -100 0
-12 -124 0
-12 -146 0
-12 -169 0
-12 -194 0
-12 -217 0
-34 -58 0
-34 -80 0
-34 -100 0
-34 -124 0
-34 -146 0
-34 -169 0
-34 -194 0
-34 -217 0
-58 -80 0
-58 -100 0
-58 -124 0
-58 -146 0
-58 -169 0
-58 -194 0
-58 -217 0
-80 -100 0
-80 -124 0
-80 -146 0
-80 -169 0
-80 -194 0
-80 -217 0
-100 -124 0
-100 -146 0
-100 -169 0
-100 -194 0
-100 -217 0
-124 -146 0
-124 -169 0
-124 -194 0
-124 -217 0
-146 -169 0
-146 -194 0
-146 -217 0
-169 -194 0
-169 -217 0
-194 -217 0
-13 -35 0
-13 -59 0
-13 -101 0
-13 -125 0
-13 -147 0
-13 -170 0
-13 -195 0
-13 -218 0
-35 -59 0
-35 -101 0
-35 -125 0
-35 -147 0
-35 -170 0
-35 -195 0
-35 -218 0
-59 -101 0
-59 -125 0
-59 -147 0
-59 -170 0
-59 -195 0
-59 -218 0
-101 -125 0
-101 -147 0
-101 -170 0
-101 -195 0
-101 -218 0
-125 -147 0
-125 -170 0
-125 -195 0
-125 -218 0
-147 -170 0
-147 -195 0
-147 -218 0
-170 -195 0
-170 -218 0
-195 -218 0
-14 -36 0
-14 -81 0
-14 -126 0
-14 -148 0
-14 -171 0
-14 -196 0
-14 -219 0
-36 -81 0
-36 -126 0
-36 -148 0
-36 -171 0
-36 -196 0
-36 -219 0
-81 -126 0
-81 -148 0
-81 -171 0
-81 -196 0
-81 -219 0
-126 -148 0
-126 -171 0
-126 -196 0
-126 -219 0
-148 -171 0
-148 -196 0
-148 -219 0
-171 -196 0
-171 -219 0
-196 -219 0
-15 -37 0
-15 -60 0
-15 -82 0
-15 -102 0
-15 -149 0
-15 -172 0
-15 -197 0
-37 -60 0
-37 -82 0
-37 -102 0
-37 -149 0
-37 -172 0
-37 -197 0
-60 -82 0
-60 -102 0
-60 -149 0
-60 -172 0
-60 -197 0
-82 -102 0
-82 -149 0
-82 -172 0
-82 -197 0
-102 -149 0
-102 -172 0
-102 -197 0
-149 -172 0
-149 -197 0
-172 -197 0
-16 -38 0
-16 -61 0
-16 -103 0
-16 -127 0
-16 -173 0
-16 -198 0
-16 -220 0
-38 -61 0
-38 -103 0
-38 -127 0
-38 -173 0
-38 -198 0
-38 -220 0
-61 -103 0
-61 -127 0
-61 -173 0
-61 -198 0
-61 -220 0
-103 -127 0
-103 -173 0
-103 -198 0
-103 -220 0
-127 -173 0
-127 -198 0
-127 -220 0
-173 -198 0
-173 -220 0
-198 -220 0
-17 -39 0
-17 -62 0
-17 -83 0
-17 -104 0
-17 -128 0
-17 -150 0
-17 -174 0
-17 -199 0
-17 -221 0
-39 -62 0
-39 -83 0
-39 -104 0
-39 -128 0
-39 -150 0
-39 -174 0
-39 -199 0
-39 -221 0
-62 -83 0
-62 -104 0
-62 -128 0
-62 -150 0
-62 -174 0
-62 -199 0
-62 -221 0
-83 -104 0
-83 -128 0
-83 -150 0
-83 -174 0
-83 -199 0
-83 -221 0
-104 -128 0
-104 -150 0
-104 -174 0
-104 -199 0
-104 -221 0
-128 -150 0
-128 -174 0
-128 -199 0
-128 -221 0
-150 -174 0
-150 -199 0
-150 -221 0
-174 -199 0
-174 -221 0
-199 -221 0
-18 -40 0
-18 -63 0
-18 -84 0
-18 -105 0
-18 -129 0
-18 -175 0
-18 -200 0
-18 -222 0
-40 -63 0
-40 -84 0
-40 -105 0
-40 -129 0
-40 -175 0
-40 -200 0
-40 -222 0
-63 -84 0
-63 -105 0
-63 -129 0
-63 -175 0
-63 -200 0
-63 -222 0
-84 -105 0
-84 -129 0
-84 -175 0
-84 -200 0
-84 -222 0
-105 -129 0
-105 -175 0
-105 -200 0
-105 -222 0
-129 -175 0
-129 -200 0
-129 -222 0
-175 -200 0
-175 -222 0
-200 -222 0
-19 -41 0
-19 -64 0
-19 -85 0
-19 -106 0
-19 -130 0
-19 -151 0
-19 -176 0
-19 -223 0
-41 -64 0
-41 -85 0
-41 -106 0
-41 -130 0
-41 -151 0
-41 -176 0
-41 -223 0
-64 -85 0
-64 -106 0
-64 -130 0
-64 -151 0
-64 -176 0
-64 -223 0
-85 -106 0
-85 -130 0
-85 -151 0
-85 -176 0
-85 -223 0
-106 -130 0
-106 -151 0
-106 -176 0
-106 -223 0
-130 -151 0
-130 -176 0
-130 -223 0
-151 -176 0
-151 -223 0
-176 -223 0
-42 -65 0
-42 -86 0
-42 -107 0
-42 -131 0
-42 -152 0
-42 -177 0
-42 -201 0
-42 -224 0
-65 -86 0
-65 -107 0
-65 -131 0
-65 -152 0
-65 -177 0
-65 -201 0
-65 -224 0
-86 -107 0
-86 -131 0
-86 -152 0
-86 -177 0
-86 -201 0
-86 -224 0
-107 -131 0
-107 -152 0
-107 -177 0
-107 -201 0
-107 -224 0
-131 -152 0
-131 -177 0
-131 -201 0
-131 -224 0
-152 -177 0
-152 -201 0
-152 -224 0
-177 -201 0
-177 -224 0
-201 -224 0
-20 -43 0
-20 -66 0
-20 -87 0
-20 -108 0
-20 -153 0
-20 -178 0
-20 -202 0
-43 -66 0
-43 -87 0
-43 -108 0
-43 -153 0
-43 -178 0
-43 -202 0
-66 -87 0
-66 -108 0
-66 -153 0
-66 -178 0
-66 -202 0
-87 -108 0
-87 -153 0
-87 -178 0
-87 -202 0
-108 -153 0
-108 -178 0
-108 -202 0
-153 -178 0
-153 -202 0
-178 -202 0
-21 -67 0
-21 -88 0
-21 -109 0
-21 -132 0
-21 -154 0
-21 -179 0
-21 -203 0
-21 -225 0
-67 -88 0
-67 -109 0
-67 -132 0
-67 -154 0
-67 -179 0
-67 -203 0
-67 -225 0
-88 -109 0
-88 -132 0
-88 -154 0
-88 -179 0
-88 -203 0
-88 -225 0
-109 -132 0
-109 -154 0
-109 -179 0
-109 -203 0
-109 -225 0
-132 -154 0
-132 -179 0
-132 -203 0
-132 -225 0
-154 -179 0
-154 -203 0
-154 -225 0
-179 -203 0
-179 -225 0
-203 -225 0
-22 -44 0
-22 -68 0
-22 -89 0
-22 -110 0
-22 -133 0
-22 -155 0
-22 -180 0
-22 -204 0
-22 -226 0
-44 -68 0
-44 -89 0
-44 -110 0
-44 -133 0
-44 -155 0
-44 -180 0
-44 -204 0
-44 -226 0
-68 -89 0
-68 -110 0
-68 -133 0
-68 -155 0
-68 -180 0
-68 -204 0
-68 -226 0
-89 -110 0
-89 -133 0
-89 -155 0
-89 -180 0
-89 -204 0
-89 -226 0
-110 -133 0
-110 -155 0
-110 -180 0
-110 -204 0
-110 -226 0
-133 -155 0
-133 -180 0
-133 -204 0
-133 -226 0
-155 -180 0
-155 -204 0
-155 -226 0
-180 -204 0
-180 -226 0
-204 -226 0
-23 -45 0
-23 -69 0
-23 -90 0
-23 -111 0
-23 -134 0
-23 -156 0
-23 -181 0
-23 -205 0
-23 -227 0
-45 -69 0
-45 -90 0
-45 -111 0
-45 -134 0
-45 -156 0
-45 -181 0
-45 -205 0
-45 -227 0
-69 -90 0
-69 -111 0
-69 -134 0
-69 -156 0
-69 -181 0
-69 -205 0
-69 -227 0
-90 -111 0
-90 -134 0
-90 -156 0
-90 -181 0
-90 -205 0
-90 -227 0
-111 -134 0
-111 -156 0
-111 -181 0
-111 -205 0
-111 -227 0
-134 -156 0
-134 -181 0
-134 -205 0
-134 -227 0
-156 -181 0
-156 -205 0
-156 -227 0
-181 -205 0
-181 -227 0
-205 -227 0
-24 -46 0
-24 -91 0
-24 -112 0
-24 -135 0
-24 -157 0
-24 -182 0
-24 -206 0
-24 -228 0
-46 -91 0
-46 -112 0
-46 -135 0
-46 -157 0
-46 -182 0
-46 -206 0
-46 -228 0
-91 -112 0
-91 -135 0
-91 -157 0
-91 -182 0
-91 -206 0
-91 -228 0
-112 -135 0
-112 -157 0
-112 -182 0
-112 -206 0
-112 -228 0
-135 -157 0
-135 -182 0
-135 -206 0
-135 -228 0
-157 -182 0
-157 -206 0
-157 -228 0
-182 -206 0
-182 -228 0
-206 -228 0